(declare-fun Constructed_Argument_t () String)
(declare-fun CreateAsClass () Bool)
(declare-fun Constructed_Argument () String)
(declare-fun ExpandObjSwitcher () Real)
(assert (= Constructed_Argument_t "string"))
(assert (not CreateAsClass))
(assert (= Constructed_Argument ""))
(assert (not (= ExpandObjSwitcher 0.0)))
(assert (= ExpandObjSwitcher 1.0))
(assert false)
(check-sat)
